TCS_Benchmarks/redos_fix/snort3_output_distinct_929_928_0_0.txt
.*
(.*)([uU][pP][dD][aA][tT][eE][rR][eE][gG][nN]=)([^\n\r&]+)
[^\n\r&]+